VALUE 2248
1 56
7 270
7 18
1 19
36 56
39 304
39 49
55 295
56 102
57 288
58 262
60 176
62 291
73 190
102 125
111 216
62 113
125 175
113 142
62 151
155 229
164 213
175 223
187 227
18 190
151 211
142 213
216 254
155 219
49 220
223 283
220 227
36 229
211 247
73 254
164 262
213 270
187 283
247 288
60 291
57 295
111 304
58 310

